NAME : n20w200.004.293.tour
COMMENT : Length = 293
COMMENT : Found by LKH [Keld Helsgaun] Tue May  2 05:19:04 2017
TYPE : TOUR
DIMENSION : 21
TOUR_SECTION
1
14
7
19
18
15
11
4
3
12
5
13
2
17
20
8
16
10
9
6
21
-1
EOF
